benchmarks_vrp/CMT5/tsp_classic/CMT5_6.vrp
NAME: CMT5_6
TYPE: CVRP
COMMENT: 1291.29 - Cluster Nr.6
DIMENSION: 11
CAPACITY: 200
EDGE_WEIGHT_TYPE: EUC_2D
NODE_COORD_TYPE: TWOD_COORDS
NODE_COORD_SECTION: 
10 40 25
1 43 26
2 45 35
6 35 35
7 40 30
8 37 31
3 36 26
5 48 28
9 36 26
4 45 30
11 45 35
DEPOT_SECTION: 
6
-1
DEMAND_SECTION: 
11 15
7 21
8 14
1 22
4 17
10 9
3 26
6 0
5 18
9 18
2 30
EOF
