benchmarks_vrp/CMT5/tsp_classic/CMT5_6.tour
NAME: CMT5_6 solution
TYPE: TOUR
TOUR_SECTION:
6 3 9 10 1 5 4 2 11 7 8 -1
-1
EOF